
Gurobi 10.0.1 (win64) logging started Wed Jul  5 16:48:06 2023

Set parameter LogFile to value "results/log/SNT_03_makespan.log"
Gurobi Optimizer version 10.0.1 build v10.0.1rc0 (win64)

CPU model: AMD Ryzen 7 3700X 8-Core Processor, instruction set [SSE2|AVX|AVX2]
Thread count: 8 physical cores, 16 logical processors, using up to 16 threads

Optimize a model with 588 rows, 735 columns and 2423 nonzeros
Model fingerprint: 0x784406ef
Variable types: 0 continuous, 735 integer (701 binary)
Coefficient statistics:
  Matrix range     [1e+00, 1e+03]
  Objective range  [1e+00, 1e+00]
  Bounds range     [1e+00, 1e+00]
  RHS range        [1e+00, 3e+03]
Presolve removed 196 rows and 537 columns
Presolve time: 0.00s
Presolved: 392 rows, 198 columns, 1114 nonzeros
Variable types: 0 continuous, 198 integer (165 binary)

Root relaxation: objective 3.290000e+02, 130 iterations, 0.00 seconds (0.00 work units)

    Nodes    |    Current Node    |     Objective Bounds      |     Work
 Expl Unexpl |  Obj  Depth IntInf | Incumbent    BestBd   Gap | It/Node Time

     0     0  329.00000    0   83          -  329.00000      -     -    0s
H    0     0                    1169.0000000  331.00000  71.7%     -    0s
H    0     0                    1129.0000000  331.00000  70.7%     -    0s
H    0     0                    1123.0000000  331.00000  70.5%     -    0s
     0     0  598.55957    0  120 1123.00000  598.55957  46.7%     -    0s
H    0     0                    1119.0000000  607.08882  45.7%     -    0s
H    0     0                    1118.0000000  607.08882  45.7%     -    0s
H    0     0                    1017.0000000  607.08882  40.3%     -    0s
     0     0  607.08882    0  122 1017.00000  607.08882  40.3%     -    0s
     0     0  611.90889    0  107 1017.00000  611.90889  39.8%     -    0s
     0     0  611.95996    0  112 1017.00000  611.95996  39.8%     -    0s
H    0     0                     971.0000000  624.46394  35.7%     -    0s
     0     0  624.46394    0  110  971.00000  624.46394  35.7%     -    0s
H    0     0                     970.0000000  624.46394  35.6%     -    0s
     0     0  625.66061    0  103  970.00000  625.66061  35.5%     -    0s
     0     0  626.07163    0  100  970.00000  626.07163  35.5%     -    0s
     0     0  626.27457    0  104  970.00000  626.27457  35.4%     -    0s
     0     0  626.34694    0  103  970.00000  626.34694  35.4%     -    0s
     0     0  631.68185    0  101  970.00000  631.68185  34.9%     -    0s
     0     0  632.74025    0  101  970.00000  632.74025  34.8%     -    0s
     0     0  633.23167    0  105  970.00000  633.23167  34.7%     -    0s
     0     0  633.49454    0  105  970.00000  633.49454  34.7%     -    0s
     0     0  633.51965    0  110  970.00000  633.51965  34.7%     -    0s
     0     0  635.06267    0  100  970.00000  635.06267  34.5%     -    0s
H    0     0                     969.0000000  635.06267  34.5%     -    0s
     0     0  635.11560    0  103  969.00000  635.11560  34.5%     -    0s
     0     0  635.26910    0  111  969.00000  635.26910  34.4%     -    0s
     0     0  635.26910    0   94  969.00000  635.26910  34.4%     -    0s
     0     0  635.26910    0   71  969.00000  635.26910  34.4%     -    0s
     0     0  635.26910    0  107  969.00000  635.26910  34.4%     -    0s
     0     0  635.26910    0   96  969.00000  635.26910  34.4%     -    0s
     0     0  635.26910    0  101  969.00000  635.26910  34.4%     -    0s
H    0     0                     968.0000000  635.26910  34.4%     -    0s
     0     0  635.26910    0   96  968.00000  635.26910  34.4%     -    0s
     0     0  635.26910    0  104  968.00000  635.26910  34.4%     -    0s
     0     0  635.27060    0  105  968.00000  635.27060  34.4%     -    0s
H    0     0                     962.0000000  635.27060  34.0%     -    0s
     0     0  636.15840    0   96  962.00000  636.15840  33.9%     -    0s
H    0     0                     961.0000000  636.15840  33.8%     -    0s
     0     0  636.36241    0   92  961.00000  636.36241  33.8%     -    0s
     0     0  636.37947    0   95  961.00000  636.37947  33.8%     -    0s
     0     0  636.88770    0   98  961.00000  636.88770  33.7%     -    0s
     0     0  636.88770    0   87  961.00000  636.88770  33.7%     -    0s
     0     2  637.06509    0   85  961.00000  637.06509  33.7%     -    0s
H   35    39                     960.0000000  641.08284  33.2%   185    0s
H   64    78                     950.0000000  641.51993  32.5%   147    0s
H   74    78                     941.0000000  641.51993  31.8%   145    0s
H  120   138                     932.0000000  641.51993  31.2%   111    0s
H  136   138                     929.0000000  641.51993  30.9%   103    0s
*  531   507              64     927.0000000  641.51993  30.8%  49.5    0s
H  659   671                     923.0000000  641.51993  30.5%  43.8    0s
H  744   671                     922.0000000  641.51993  30.4%  40.3    0s
H 1497  1075                     921.0000000  643.43071  30.1%  32.1    1s
H 1549  1053                     918.0000000  645.94310  29.6%  31.0    1s
H 1558  1004                     912.0000000  646.27966  29.1%  30.8    1s
H 1568   959                     908.0000000  646.53688  28.8%  30.6    1s
H 1618   940                     896.0000000  647.98010  27.7%  29.7    2s
H 1619   891                     894.0000000  648.36413  27.5%  29.7    2s
H 1712   902                     886.0000000  650.55688  26.6%  28.1    2s
  2496  1381  736.48458   28   72  886.00000  653.01689  26.3%  57.5    5s
 13324  7965  674.83544   21  115  886.00000  669.08664  24.5%  56.7   10s
 25411 16166  765.62694   29   60  886.00000  675.39450  23.8%  54.3   15s
 37741 23518  701.79222   24  105  886.00000  679.30701  23.3%  53.2   20s
 42567 25404  753.22778   28  132  886.00000  680.55548  23.2%  53.0   25s
